1 -1 2 0
1 1 -3 0
1 1 4 0
1 -1 -5 0
1 1 6 0
1 -2 7 0
1 2 8 0
1 -2 -3 0
1 -2 1 0
1 -2 -4 0
1 -2 -6 0
1 -9 -10 0
1 9 -11 0
1 9 -12 0
1 9 -8 0
1 9 3 0
1 9 13 0
1 9 14 0
1 9 -15 0
1 9 -4 0
1 9 6 0
1 12 10 0
1 -12 11 0
1 -12 16 0
1 12 -8 0
1 -12 -3 0
1 12 13 0
1 12 14 0
1 12 4 0
1 12 -6 0
1 3 -17 0
1 3 12 0
1 3 -18 0
1 3 19 0
1 -3 -20 0
1 3 9 0
1 -3 -1 0
1 3 6 0
1 -6 -21 0
1 -6 -17 0
1 -6 22 0
1 6 23 0
1 -6 -12 0
1 6 2 0
1 -6 3 0
1 -6 -19 0
1 -6 -20 0
1 6 9 0
1 -6 -1 0
1 8 24 0
1 8 25 0
1 -8 -12 0
1 -8 2 0
1 8 18 0
1 -8 -26 0
1 8 -27 0
1 -8 -9 0
1 8 1 0
1 8 -4 0
1 -4 17 0
1 -4 25 0
1 4 12 0
1 -4 -2 0
1 4 -8 0
1 -4 18 0
1 -4 -26 0
1 4 27 0
1 -4 9 0
1 4 -1 0
1 4 28 0
1 20 -10 0
1 20 -11 0
1 -20 23 0
1 -20 -3 0
1 -20 13 0
1 20 -27 0
1 20 -6 0
1 -23 -10 0
1 23 -25 0
1 23 3 0
1 23 13 0
1 23 -14 0
1 23 6 0
1 -19 -10 0
1 19 29 0
1 19 30 0
1 19 3 0
1 19 -13 0
1 -19 14 0
1 19 31 0
1 19 -26 0
1 -19 32 0
1 19 -6 0
1 -22 -10 0
1 22 11 0
1 -22 29 0
1 22 24 0
1 -22 30 0
1 22 3 0
1 22 31 0
1 -22 32 0
1 22 -6 0
1 14 33 0
1 -14 34 0
1 -14 -11 0
1 14 22 0
1 14 23 0
1 -14 12 0
1 -14 -35 0
1 -14 -36 0
1 14 -37 0
1 14 -38 0
1 -14 19 0
1 -14 20 0
1 14 -9 0
1 14 -39 0
1 11 33 0
1 11 34 0
1 11 -40 0
1 -11 -22 0
1 -11 23 0
1 11 12 0
1 -11 -36 0
1 -11 -37 0
1 -11 14 0
1 -11 -19 0
1 11 20 0
1 -11 9 0
1 11 -39 0
1 -13 -10 0
1 -13 -41 0
1 13 -17 0
1 13 -22 0
1 -13 23 0
1 13 12 0
1 13 -35 0
1 13 42 0
1 13 43 0
1 -13 -18 0
1 13 -19 0
1 -13 -20 0
1 13 9 0
1 13 -39 0
1 -10 41 0
1 -10 44 0
1 -10 -17 0
1 10 22 0
1 10 23 0
1 10 -12 0
1 -10 -13 0
1 10 -42 0
1 -10 18 0
1 10 19 0
1 10 -9 0
1 10 -39 0
1 -37 34 0
1 37 -11 0
1 -37 29 0
1 37 -30 0
1 37 -14 0
1 -37 18 0
1 -37 -31 0
1 -37 32 0
1 34 -11 0
1 34 17 0
1 -34 -29 0
1 -34 30 0
1 34 37 0
1 -34 14 0
1 34 31 0
1 -34 -32 0
1 36 -33 0
1 36 11 0
1 -36 29 0
1 -36 30 0
1 -36 -42 0
1 36 14 0
1 -36 -31 0
1 36 32 0
1 -33 41 0
1 -33 11 0
1 33 -29 0
1 33 -30 0
1 -33 -36 0
1 33 -14 0
1 -33 32 0
1 -32 33 0
1 32 -34 0
1 -32 -22 0
1 32 36 0
1 -32 -37 0
1 -32 19 0
1 -32 45 0
1 32 46 0
1 -30 -33 0
1 30 -34 0
1 -30 -22 0
1 30 -47 0
1 30 -48 0
1 30 -37 0
1 -30 19 0
1 -30 -32 0
1 30 -46 0
1 -31 34 0
1 31 22 0
1 -31 -29 0
1 -31 -48 0
1 -31 49 0
1 31 35 0
1 31 36 0
1 -31 37 0
1 -31 -19 0
1 -31 -50 0
1 31 46 0
1 -31 39 0
1 29 -33 0
1 -29 22 0
1 -29 -51 0
1 29 49 0
1 29 35 0
1 -29 36 0
1 -29 -37 0
1 -29 19 0
1 29 -31 0
1 -29 46 0
1 -29 52 0
1 5 53 0
1 5 54 0
1 -5 7 0
1 -5 -55 0
1 -5 56 0
1 -5 1 0
1 -5 57 0
1 -7 53 0
1 7 -54 0
1 -7 -2 0
1 7 -55 0
1 7 -56 0
1 15 -53 0
1 15 54 0
1 15 -58 0
1 -15 -59 0
1 15 -55 0
1 15 -56 0
1 -15 -60 0
1 15 -61 0
1 -15 9 0
1 15 -62 0
1 16 -53 0
1 -16 -54 0
1 16 58 0
1 -16 -59 0
1 -16 63 0
1 -16 -55 0
1 -16 -56 0
1 -16 60 0
1 16 -61 0
1 16 15 0
1 54 64 0
1 -54 24 0
1 54 65 0
1 -54 25 0
1 -54 16 0
1 -54 7 0
1 54 56 0
1 54 -66 0
1 54 26 0
1 -54 -27 0
1 54 -15 0
1 -54 -5 0
1 56 -64 0
1 -56 -24 0
1 -56 25 0
1 -56 -16 0
1 -56 7 0
1 56 -67 0
1 -56 66 0
1 56 -26 0
1 56 -27 0
1 -56 -15 0
1 -56 5 0
1 -53 68 0
1 -53 64 0
1 -53 -69 0
1 53 70 0
1 53 16 0
1 -53 -7 0
1 -53 55 0
1 -53 66 0
1 -53 -71 0
1 -53 -72 0
1 53 15 0
1 -53 5 0
1 -55 53 0
1 -55 -64 0
1 55 69 0
1 55 -70 0
1 -55 -16 0
1 -55 -7 0
1 55 73 0
1 55 66 0
1 -55 -71 0
1 55 -72 0
1 -55 -15 0
1 27 54 0
1 27 -58 0
1 27 25 0
1 27 59 0
1 -27 -8 0
1 -27 -60 0
1 -27 61 0
1 -27 20 0
1 27 -72 0
1 -27 4 0
1 25 -54 0
1 25 58 0
1 25 -59 0
1 25 70 0
1 -25 -8 0
1 -25 -56 0
1 25 60 0
1 -25 61 0
1 25 27 0
1 -26 -54 0
1 26 -24 0
1 -26 58 0
1 26 74 0
1 26 -75 0
1 -26 -8 0
1 26 -60 0
1 -26 -19 0
1 26 61 0
1 -26 71 0
1 26 76 0
1 26 77 0
1 -26 4 0
1 24 -61 0
1 -24 -54 0
1 -24 -22 0
1 24 58 0
1 -24 69 0
1 24 59 0
1 -24 75 0
1 -24 8 0
1 -24 -60 0
1 -24 26 0
1 24 -76 0
1 24 -77 0
1 24 4 0
1 -59 -78 0
1 -59 61 0
1 -59 17 0
1 -59 -25 0
1 59 79 0
1 59 16 0
1 59 80 0
1 -59 -42 0
1 -59 18 0
1 -59 26 0
1 59 -27 0
1 -59 15 0
1 61 78 0
1 61 -41 0
1 -61 17 0
1 -61 24 0
1 -61 25 0
1 -61 59 0
1 61 16 0
1 61 -80 0
1 -61 -42 0
1 61 -18 0
1 61 -26 0
1 -61 81 0
1 -61 -27 0
1 61 -15 0
1 58 78 0
1 -58 -82 0
1 -58 -64 0
1 -58 -83 0
1 -58 25 0
1 -58 -16 0
1 -58 -80 0
1 -58 -84 0
1 58 60 0
1 -58 -66 0
1 58 26 0
1 58 -27 0
1 58 15 0
1 -60 -78 0
1 -60 82 0
1 -60 -64 0
1 -60 -24 0
1 -60 -58 0
1 60 16 0
1 60 -80 0
1 -60 -84 0
1 -60 -66 0
1 60 -26 0
1 -60 -85 0
1 -60 -27 0
1 -60 15 0
1 -18 -17 0
1 18 59 0
1 -18 -74 0
1 -18 75 0
1 18 -8 0
1 -18 -3 0
1 -18 13 0
1 -18 37 0
1 -18 -66 0
1 -18 61 0
1 18 -76 0
1 -18 77 0
1 -18 4 0
1 18 -6 0
1 17 -10 0
1 -17 64 0
1 17 59 0
1 17 74 0
1 17 75 0
1 17 -3 0
1 -17 13 0
1 17 -18 0
1 -17 -61 0
1 -17 77 0
1 17 -4 0
1 17 6 0
1 42 21 0
1 -42 -10 0
1 42 -59 0
1 -42 74 0
1 -42 -75 0
1 42 86 0
1 42 -87 0
1 42 13 0
1 -42 -36 0
1 42 84 0
1 -42 61 0
1 42 76 0
1 -42 77 0
1 -42 28 0
1 -41 21 0
1 41 33 0
1 -41 10 0
1 -41 -59 0
1 -41 74 0
1 41 -75 0
1 -41 -86 0
1 41 -87 0
1 41 13 0
1 41 42 0
1 -41 -61 0
1 41 -76 0
1 -41 -77 0
1 -41 -28 0
1 75 -41 0
1 -75 17 0
1 75 -24 0
1 -75 88 0
1 -75 49 0
1 75 -89 0
1 -75 -35 0
1 -75 -42 0
1 75 18 0
1 -75 -26 0
1 -75 77 0
1 -75 -90 0
1 75 -52 0
1 75 -39 0
1 77 41 0
1 77 -17 0
1 -77 24 0
1 77 -75 0
1 -77 49 0
1 77 -35 0
1 77 91 0
1 77 42 0
1 -77 18 0
1 77 26 0
1 77 -90 0
1 -77 52 0
1 77 -39 0
1 74 78 0
1 74 41 0
1 -74 -17 0
1 -74 24 0
1 74 -92 0
1 -74 -88 0
1 -74 -93 0
1 -74 80 0
1 -74 42 0
1 74 18 0
1 -74 -26 0
1 -74 76 0
1 -74 90 0
1 74 -94 0
1 76 -78 0
1 -76 41 0
1 -76 17 0
1 76 74 0
1 -76 -88 0
1 -76 93 0
1 76 80 0
1 76 42 0
1 76 18 0
1 -76 26 0
1 76 95 0
1 76 90 0
1 -76 94 0
1 35 -21 0
1 35 10 0
1 35 -29 0
1 35 -75 0
1 -35 -86 0
1 -35 -80 0
1 35 -13 0
1 35 14 0
1 35 -31 0
1 35 77 0
1 35 28 0
1 -35 39 0
1 -39 -78 0
1 39 10 0
1 -39 -11 0
1 39 -29 0
1 39 -75 0
1 -39 86 0
1 -39 35 0
1 39 -87 0
1 39 14 0
1 39 31 0
1 39 -77 0
1 -49 44 0
1 -49 40 0
1 -49 29 0
1 49 -75 0
1 -49 93 0
1 -49 86 0
1 -49 -87 0
1 49 43 0
1 -49 -38 0
1 -49 31 0
1 -49 -77 0
1 -49 -52 0
1 49 28 0
1 52 -21 0
1 -52 -40 0
1 52 -29 0
1 52 -75 0
1 -52 -49 0
1 -52 86 0
1 52 87 0
1 -52 -43 0
1 -52 38 0
1 -52 31 0
1 52 28 0
1 52 77 0
1 -52 94 0
1 -87 21 0
1 87 -41 0
1 -87 -96 0
1 -87 -97 0
1 87 -48 0
1 87 49 0
1 87 35 0
1 87 -3 0
1 -87 98 0
1 -87 42 0
1 -87 99 0
1 87 -46 0
1 -87 52 0
1 87 39 0
1 21 100 0
1 -21 41 0
1 21 -96 0
1 -21 -97 0
1 21 -48 0
1 21 49 0
1 -21 35 0
1 21 -87 0
1 -21 6 0
1 21 -101 0
1 21 99 0
1 -21 -46 0
1 21 52 0
1 -21 39 0
1 -86 41 0
1 86 96 0
1 -86 -102 0
1 86 -88 0
1 86 -49 0
1 -86 -8 0
1 -86 -35 0
1 -86 -103 0
1 -86 -42 0
1 -86 101 0
1 86 -104 0
1 -86 90 0
1 86 52 0
1 86 28 0
1 -86 39 0
1 -28 -41 0
1 -28 -96 0
1 -28 -102 0
1 28 -88 0
1 -28 49 0
1 -28 86 0
1 -28 35 0
1 -28 -4 0
1 28 101 0
1 -28 104 0
1 28 -52 0
1 28 105 0
1 28 -39 0
1 48 21 0
1 -48 44 0
1 -48 -29 0
1 48 40 0
1 -48 30 0
1 -48 88 0
1 48 43 0
1 48 38 0
1 48 31 0
1 -48 32 0
1 -48 -46 0
1 46 -21 0
1 -46 40 0
1 -46 -29 0
1 -46 -30 0
1 46 -87 0
1 46 43 0
1 46 -38 0
1 -46 31 0
1 46 -32 0
1 46 90 0
1 -97 21 0
1 -97 44 0
1 97 40 0
1 97 -51 0
1 -97 99 0
1 97 -47 0
1 97 -102 0
1 97 -43 0
1 97 -38 0
1 97 -50 0
1 -97 45 0
1 -99 -21 0
1 -99 -44 0
1 99 40 0
1 -99 -51 0
1 -99 -97 0
1 99 43 0
1 -99 50 0
1 -99 -45 0
1 99 104 0
1 38 -40 0
1 -38 106 0
1 38 -107 0
1 38 97 0
1 -38 -48 0
1 38 -49 0
1 38 -108 0
1 -38 -14 0
1 38 -109 0
1 -38 -110 0
1 38 -99 0
1 -38 46 0
1 -38 52 0
1 -40 11 0
1 -40 -111 0
1 40 -112 0
1 40 -97 0
1 40 48 0
1 40 -108 0
1 40 113 0
1 40 38 0
1 -40 -110 0
1 40 -99 0
1 -40 -46 0
1 40 52 0
1 43 44 0
1 -43 111 0
1 -43 -96 0
1 43 -48 0
1 -43 49 0
1 43 -13 0
1 43 -108 0
1 -43 114 0
1 -43 -115 0
1 43 -101 0
1 44 -10 0
1 44 -116 0
1 44 111 0
1 -44 -96 0
1 44 -97 0
1 44 -49 0
1 44 108 0
1 -44 43 0
1 -44 115 0
1 44 -99 0
1 44 46 0
1 -44 -52 0
1 -107 40 0
1 107 -51 0
1 -107 47 0
1 107 96 0
1 107 50 0
1 107 38 0
1 107 110 0
1 -107 45 0
1 -110 40 0
1 -110 51 0
1 -110 107 0
1 110 -47 0
1 -110 -50 0
1 110 -101 0
1 110 45 0
1 106 40 0
1 106 51 0
1 -106 -117 0
1 -106 -47 0
1 -106 38 0
1 -106 -50 0
1 -106 45 0
1 -113 -40 0
1 113 -51 0
1 113 -47 0
1 113 -38 0
1 -113 115 0
1 -113 50 0
1 113 -45 0
1 45 -118 0
1 -45 106 0
1 -45 -107 0
1 -45 -47 0
1 45 97 0
1 -45 119 0
1 -45 113 0
1 45 -110 0
1 45 99 0
1 -45 120 0
1 47 -118 0
1 47 106 0
1 -47 -30 0
1 -47 -121 0
1 47 -97 0
1 47 -119 0
1 -47 113 0
1 47 110 0
1 -47 99 0
1 -47 -45 0
1 50 118 0
1 -50 -122 0
1 50 -111 0
1 50 -106 0
1 -50 51 0
1 -50 -107 0
1 50 97 0
1 50 -123 0
1 -50 -108 0
1 -50 -113 0
1 -50 31 0
1 -50 -124 0
1 50 -99 0
1 51 118 0
1 -51 -122 0
1 51 -111 0
1 -51 -106 0
1 -51 -125 0
1 51 107 0
1 -51 -97 0
1 -51 123 0
1 -51 -50 0
1 51 108 0
1 51 113 0
1 -51 110 0
1 -51 -99 0
1 57 126 0
1 57 127 0
1 57 128 0
1 57 129 0
1 -57 -130 0
1 -128 127 0
1 -128 -7 0
1 128 57 0
1 -62 126 0
1 -62 127 0
1 62 131 0
1 62 63 0
1 62 132 0
1 62 129 0
1 62 -130 0
1 -62 133 0
1 62 -15 0
1 -62 -134 0
1 63 126 0
1 63 127 0
1 -63 131 0
1 63 16 0
1 -63 132 0
1 63 129 0
1 -63 -134 0
1 -63 -130 0
1 -63 133 0
1 63 -62 0
1 130 69 0
1 -130 -127 0
1 130 70 0
1 -130 63 0
1 -130 -128 0
1 -130 71 0
1 -130 -135 0
1 130 72 0
1 -130 62 0
1 127 130 0
1 127 -69 0
1 127 136 0
1 -127 -70 0
1 127 -128 0
1 -127 -71 0
1 127 -72 0
1 127 62 0
1 127 57 0
1 129 137 0
1 -129 126 0
1 -129 63 0
1 129 -128 0
1 -129 -62 0
1 129 -57 0
1 -126 -138 0
1 -126 -63 0
1 126 -129 0
1 -126 62 0
1 126 -57 0
1 72 127 0
1 72 -70 0
1 -72 131 0
1 72 -132 0
1 -72 130 0
1 -72 27 0
1 -72 -133 0
1 -72 -134 0
1 70 -53 0
1 -70 127 0
1 -70 -25 0
1 -70 -131 0
1 -70 132 0
1 -70 133 0
1 70 -55 0
1 -70 -134 0
1 -71 -139 0
1 71 -53 0
1 71 69 0
1 -71 127 0
1 71 -131 0
1 71 132 0
1 71 -140 0
1 -71 141 0
1 -71 55 0
1 71 26 0
1 -71 -130 0
1 -71 133 0
1 71 134 0
1 -71 -142 0
1 69 -139 0
1 69 -130 0
1 69 -24 0
1 -69 -127 0
1 69 -131 0
1 -69 -140 0
1 -69 141 0
1 69 55 0
1 -69 -71 0
1 -69 -133 0
1 69 -134 0
1 -69 142 0
1 -134 143 0
1 -134 -82 0
1 -134 -64 0
1 -134 69 0
1 134 -70 0
1 -134 -63 0
1 -134 -144 0
1 134 84 0
1 -134 66 0
1 134 -72 0
1 134 -145 0
1 -132 -143 0
1 132 82 0
1 132 64 0
1 -132 69 0
1 132 -70 0
1 132 -63 0
1 132 -146 0
1 -132 -144 0
1 -132 84 0
1 132 66 0
1 132 134 0
1 -132 71 0
1 -132 72 0
1 -132 62 0
1 133 -143 0
1 -133 -69 0
1 133 70 0
1 133 -131 0
1 133 -63 0
1 -133 -144 0
1 -133 71 0
1 -133 72 0
1 -133 62 0
1 -131 -143 0
1 -131 -70 0
1 -131 -147 0
1 131 -63 0
1 -131 -144 0
1 131 -71 0
1 131 62 0
1 66 139 0
1 66 -53 0
1 -66 54 0
1 66 -64 0
1 -66 58 0
1 -66 132 0
1 -66 140 0
1 66 -56 0
1 66 18 0
1 66 134 0
1 66 -142 0
1 -64 139 0
1 64 -53 0
1 -64 54 0
1 64 -58 0
1 64 -132 0
1 -64 140 0
1 -64 141 0
1 -64 55 0
1 -64 56 0
1 64 60 0
1 -64 -66 0
1 -64 142 0
1 84 139 0
1 84 -82 0
1 84 -68 0
1 -84 65 0
1 84 58 0
1 -84 -132 0
1 -84 -140 0
1 84 141 0
1 84 73 0
1 84 -42 0
1 -84 -67 0
1 -84 -60 0
1 -84 134 0
1 84 142 0
1 82 139 0
1 82 41 0
1 -82 65 0
1 -82 58 0
1 -82 141 0
1 82 73 0
1 -82 -84 0
1 82 -60 0
1 82 -67 0
1 -82 134 0
1 -82 -142 0
1 -139 78 0
1 -139 148 0
1 -139 82 0
1 -139 -64 0
1 -139 69 0
1 -139 149 0
1 -139 93 0
1 139 -141 0
1 139 -80 0
1 -139 84 0
1 -139 -71 0
1 139 150 0
1 -139 94 0
1 -141 -78 0
1 141 -139 0
1 -141 -69 0
1 141 149 0
1 141 -93 0
1 -141 -151 0
1 141 -80 0
1 141 -84 0
1 141 66 0
1 -141 71 0
1 -141 -150 0
1 -141 94 0
1 -142 -143 0
1 142 82 0
1 -142 -64 0
1 142 -69 0
1 -142 -140 0
1 -142 149 0
1 -142 152 0
1 -142 -144 0
1 142 -84 0
1 142 66 0
1 142 71 0
1 142 150 0
1 -142 -153 0
1 140 -82 0
1 -140 64 0
1 140 69 0
1 -140 -149 0
1 -140 152 0
1 140 -144 0
1 140 -84 0
1 -140 66 0
1 -140 142 0
1 -140 153 0
1 80 78 0
1 -80 139 0
1 80 -68 0
1 80 -65 0
1 80 -58 0
1 80 -59 0
1 80 -35 0
1 -80 -73 0
1 80 67 0
1 80 -60 0
1 -80 -61 0
1 -80 -76 0
1 78 139 0
1 -78 143 0
1 -78 -68 0
1 -78 -65 0
1 -78 58 0
1 78 -59 0
1 -78 -74 0
1 -78 141 0
1 -78 67 0
1 -78 61 0
1 -78 76 0
1 -78 39 0
1 -93 139 0
1 -93 -68 0
1 93 65 0
1 -93 83 0
1 -93 -79 0
1 -93 74 0
1 -93 -49 0
1 -93 -141 0
1 -93 -152 0
1 93 -73 0
1 93 -67 0
1 93 -85 0
1 -93 81 0
1 93 -76 0
1 93 -94 0
1 -94 -139 0
1 94 68 0
1 94 65 0
1 94 83 0
1 -94 79 0
1 -94 -74 0
1 -94 -141 0
1 94 73 0
1 -94 -67 0
1 -94 -85 0
1 -94 81 0
1 -94 76 0
1 94 -52 0
1 94 -153 0
1 65 -78 0
1 65 82 0
1 -65 54 0
1 -65 154 0
1 -65 102 0
1 65 -88 0
1 65 -93 0
1 65 80 0
1 -65 84 0
1 65 67 0
1 -65 155 0
1 -65 -104 0
1 -65 -90 0
1 65 -94 0
1 67 -78 0
1 67 82 0
1 67 65 0
1 -67 156 0
1 -67 -102 0
1 67 -88 0
1 -67 -93 0
1 -67 80 0
1 -67 56 0
1 67 -84 0
1 -67 157 0
1 -67 155 0
1 67 -104 0
1 67 -90 0
1 -67 94 0
1 -68 -78 0
1 68 -82 0
1 -68 156 0
1 -68 -158 0
1 -68 -149 0
1 -68 93 0
1 68 -80 0
1 -68 -73 0
1 -68 -84 0
1 68 -155 0
1 68 159 0
1 68 150 0
1 -68 94 0
1 73 -78 0
1 -73 -82 0
1 73 -68 0
1 -73 -156 0
1 -73 158 0
1 -73 -149 0
1 73 93 0
1 -73 80 0
1 73 55 0
1 -73 -160 0
1 73 84 0
1 73 -159 0
1 -73 -150 0
1 73 -94 0
1 -88 -65 0
1 -88 -83 0
1 88 -79 0
1 88 -74 0
1 88 48 0
1 -88 -149 0
1 88 86 0
1 88 -67 0
1 -88 -85 0
1 88 -81 0
1 88 -76 0
1 -88 -77 0
1 -88 90 0
1 -88 -28 0
1 -90 -83 0
1 90 79 0
1 -90 -74 0
1 90 -77 0
1 -90 -75 0
1 -90 -88 0
1 90 67 0
1 -90 81 0
1 -90 -76 0
1 90 -46 0
1 90 150 0
1 90 -28 0
1 102 -65 0
1 -102 -83 0
1 -102 -79 0
1 102 -97 0
1 102 92 0
1 -102 158 0
1 -102 89 0
1 102 -86 0
1 -102 67 0
1 102 -85 0
1 102 81 0
1 -102 104 0
1 102 -28 0
1 -104 -65 0
1 -104 83 0
1 104 -79 0
1 -104 -102 0
1 104 92 0
1 104 89 0
1 -104 -86 0
1 104 -85 0
1 104 81 0
1 -104 99 0
1 -104 95 0
1 104 -159 0
1 -104 -91 0
1 104 -28 0
1 79 81 0
1 79 161 0
1 -79 -117 0
1 -79 -59 0
1 79 -96 0
1 -79 -162 0
1 79 88 0
1 -79 -163 0
1 79 -115 0
1 79 -101 0
1 -79 104 0
1 -79 90 0
1 -79 -94 0
1 -81 117 0
1 81 -96 0
1 -81 -79 0
1 -81 102 0
1 -81 -88 0
1 81 -93 0
1 81 163 0
1 -81 -115 0
1 81 101 0
1 81 -164 0
1 81 -104 0
1 -81 -90 0
1 -81 94 0
1 -83 161 0
1 83 -58 0
1 -83 -165 0
1 -83 156 0
1 -83 102 0
1 83 -88 0
1 83 -93 0
1 -83 163 0
1 83 85 0
1 83 166 0
1 83 104 0
1 83 -94 0
1 -85 161 0
1 85 167 0
1 -85 -83 0
1 85 165 0
1 -85 -156 0
1 -85 -102 0
1 -85 -88 0
1 85 93 0
1 85 163 0
1 -85 60 0
1 85 166 0
1 85 -155 0
1 85 -104 0
1 -85 90 0
1 -85 94 0
1 96 -21 0
1 -96 44 0
1 -96 -81 0
1 -96 107 0
1 96 79 0
1 -96 156 0
1 96 -92 0
1 -96 89 0
1 96 86 0
1 96 -87 0
1 96 43 0
1 96 -101 0
1 96 95 0
1 -96 91 0
1 96 -28 0
1 -101 -21 0
1 101 44 0
1 -101 96 0
1 101 79 0
1 -101 -92 0
1 -101 -89 0
1 -101 87 0
1 -101 43 0
1 -101 110 0
1 101 81 0
1 -101 155 0
1 101 91 0
1 -101 28 0
1 117 -100 0
1 117 44 0
1 -117 -106 0
1 117 165 0
1 -117 79 0
1 117 -92 0
1 117 89 0
1 117 98 0
1 117 43 0
1 -117 115 0
1 -117 95 0
1 117 91 0
1 117 -105 0
1 -115 -100 0
1 -115 79 0
1 115 -89 0
1 115 -103 0
1 115 -98 0
1 115 -43 0
1 115 113 0
1 115 166 0
1 115 81 0
1 115 95 0
1 -115 105 0
1 89 168 0
1 89 122 0
1 -89 -111 0
1 -89 117 0
1 -89 -96 0
1 89 -102 0
1 -89 -75 0
1 89 169 0
1 89 170 0
1 89 -123 0
1 89 108 0
1 -89 115 0
1 89 -101 0
1 89 104 0
1 -89 91 0
1 91 -122 0
1 -91 -111 0
1 91 102 0
1 91 -89 0
1 -91 170 0
1 91 123 0
1 -91 108 0
1 -91 -115 0
1 91 -101 0
1 -91 104 0
1 -91 -77 0
1 91 171 0
1 92 -168 0
1 -92 172 0
1 92 161 0
1 92 117 0
1 -92 -95 0
1 -92 -96 0
1 92 -74 0
1 -92 102 0
1 -92 173 0
1 92 -170 0
1 -92 -174 0
1 -92 -115 0
1 -92 -101 0
1 -92 -104 0
1 95 168 0
1 95 -172 0
1 95 161 0
1 -95 -117 0
1 95 -96 0
1 -95 102 0
1 95 92 0
1 95 -170 0
1 -95 -174 0
1 95 163 0
1 95 115 0
1 -95 101 0
1 -95 -76 0
1 95 104 0
1 -95 -175 0
1 -111 -100 0
1 -111 -44 0
1 -111 40 0
1 -111 161 0
1 -111 -51 0
1 111 -89 0
1 111 103 0
1 111 98 0
1 -111 108 0
1 111 43 0
1 -111 -38 0
1 -111 -50 0
1 111 91 0
1 -111 105 0
1 -108 -100 0
1 -108 -44 0
1 -108 40 0
1 -108 51 0
1 108 -89 0
1 108 103 0
1 108 -98 0
1 108 -43 0
1 108 -163 0
1 108 -50 0
1 -108 91 0
1 -108 105 0
1 -122 -100 0
1 122 172 0
1 122 -116 0
1 -122 112 0
1 122 89 0
1 -122 103 0
1 -122 -123 0
1 122 98 0
1 122 -114 0
1 -122 -109 0
1 122 50 0
1 -122 91 0
1 -122 105 0
1 -123 100 0
1 123 122 0
1 123 -116 0
1 -123 112 0
1 123 -51 0
1 123 -89 0
1 -123 103 0
1 123 -174 0
1 123 98 0
1 123 114 0
1 -123 -109 0
1 -123 -50 0
1 -123 91 0
1 -123 105 0
1 98 -118 0
1 98 -100 0
1 -98 122 0
1 -98 -117 0
1 98 176 0
1 98 -177 0
1 -98 119 0
1 98 -123 0
1 98 87 0
1 98 -108 0
1 -98 -178 0
1 98 -179 0
1 100 -118 0
1 100 122 0
1 -100 111 0
1 100 -117 0
1 -100 176 0
1 100 177 0
1 100 119 0
1 -100 -123 0
1 100 98 0
1 100 -108 0
1 100 115 0
1 -100 178 0
1 100 -179 0
1 103 -168 0
1 -103 122 0
1 -103 111 0
1 103 117 0
1 -103 -176 0
1 103 -180 0
1 103 170 0
1 -103 -123 0
1 103 108 0
1 103 115 0
1 103 178 0
1 103 105 0
1 103 -181 0
1 -105 168 0
1 105 -122 0
1 105 -111 0
1 -105 117 0
1 105 -176 0
1 105 180 0
1 105 170 0
1 -105 -123 0
1 105 103 0
1 105 108 0
1 -105 -115 0
1 -105 -178 0
1 105 -28 0
1 105 -181 0
1 118 -168 0
1 118 100 0
1 -118 116 0
1 -118 -112 0
1 -118 -51 0
1 118 47 0
1 118 -119 0
1 118 -114 0
1 118 -109 0
1 -118 50 0
1 -118 45 0
1 119 -118 0
1 119 100 0
1 119 -116 0
1 119 -112 0
1 -119 -51 0
1 -119 -47 0
1 119 -170 0
1 119 -98 0
1 -119 50 0
1 -119 45 0
1 179 -100 0
1 179 -112 0
1 179 125 0
1 -179 121 0
1 -179 -98 0
1 179 109 0
1 179 -124 0
1 -179 120 0
1 -179 181 0
1 177 -100 0
1 177 -116 0
1 -177 112 0
1 -177 125 0
1 -177 -121 0
1 -177 -180 0
1 -177 98 0
1 -177 114 0
1 177 109 0
1 177 124 0
1 177 120 0
1 177 -179 0
1 109 118 0
1 109 122 0
1 109 -112 0
1 -109 182 0
1 -109 -183 0
1 -109 177 0
1 -109 119 0
1 109 123 0
1 109 38 0
1 -109 -184 0
1 -109 -179 0
1 -112 122 0
1 -112 -40 0
1 -112 182 0
1 -112 -183 0
1 -112 -177 0
1 112 119 0
1 -112 -123 0
1 -112 -109 0
1 -112 -184 0
1 112 -185 0
1 112 -179 0
1 -114 118 0
1 -114 -122 0
1 -114 116 0
1 -114 -186 0
1 -114 176 0
1 -114 177 0
1 -114 123 0
1 114 43 0
1 114 187 0
1 114 -178 0
1 -114 179 0
1 -116 118 0
1 -116 -122 0
1 -116 -44 0
1 116 176 0
1 116 -177 0
1 -116 -119 0
1 -116 -123 0
1 -116 114 0
1 116 -187 0
1 -116 178 0
1 -116 -179 0
1 185 -112 0
1 -185 -125 0
1 -185 121 0
1 185 -183 0
1 -185 109 0
1 -185 -124 0
1 185 120 0
1 185 -178 0
1 -183 -112 0
1 -183 -125 0
1 -183 176 0
1 -183 109 0
1 -183 -120 0
1 -183 -185 0
1 -184 -112 0
1 184 125 0
1 -184 182 0
1 -184 -121 0
1 184 -109 0
1 -184 -124 0
1 -184 120 0
1 -184 -187 0
1 -182 120 0
1 182 -112 0
1 182 125 0
1 182 -121 0
1 -182 186 0
1 182 109 0
1 -182 124 0
1 120 -182 0
1 -120 121 0
1 120 183 0
1 -120 -45 0
1 120 -184 0
1 -121 -120 0
1 121 -47 0
1 121 -183 0
1 121 177 0
1 121 184 0
1 -121 -185 0
1 -121 -179 0
1 124 125 0
1 -124 -182 0
1 124 -183 0
1 -124 177 0
1 124 50 0
1 -124 184 0
1 124 -185 0
1 -124 -179 0
1 125 51 0
1 125 182 0
1 125 183 0
1 125 177 0
1 125 -124 0
1 -125 -184 0
1 125 -185 0
1 125 -179 0
1 -144 -143 0
1 -144 138 0
1 144 -136 0
1 144 -131 0
1 144 -140 0
1 -144 -80 0
1 -144 -137 0
1 144 135 0
1 144 133 0
1 144 134 0
1 -144 -142 0
1 -143 -78 0
1 143 138 0
1 -143 136 0
1 -143 131 0
1 143 132 0
1 -143 140 0
1 143 144 0
1 -143 -137 0
1 -143 135 0
1 -143 -133 0
1 143 -134 0
1 -143 -142 0
1 -152 -138 0
1 -152 -136 0
1 152 -147 0
1 -152 -146 0
1 152 140 0
1 -152 93 0
1 152 -137 0
1 152 135 0
1 152 -188 0
1 -152 -145 0
1 -152 -142 0
1 -152 153 0
1 -153 138 0
1 153 136 0
1 153 146 0
1 -153 140 0
1 153 -152 0
1 -153 -137 0
1 -153 -135 0
1 153 188 0
1 -153 -145 0
1 153 -142 0
1 -153 -94 0
1 -135 -143 0
1 -135 -158 0
1 -135 -149 0
1 -135 189 0
1 -135 -152 0
1 -135 -144 0
1 -135 -130 0
1 -135 150 0
1 -136 143 0
1 -136 127 0
1 -136 190 0
1 -136 158 0
1 -136 -149 0
1 136 -152 0
1 136 159 0
1 -136 150 0
1 -136 -153 0
1 -137 143 0
1 137 -138 0
1 -137 144 0
1 137 129 0
1 137 191 0
1 -137 153 0
1 -138 -143 0
1 138 126 0
1 -138 192 0
1 138 152 0
1 -138 -144 0
1 138 137 0
1 -138 -153 0
1 149 -136 0
1 149 -147 0
1 -149 -146 0
1 149 88 0
1 149 140 0
1 -149 -141 0
1 -149 -73 0
1 149 135 0
1 -149 188 0
1 149 -145 0
1 149 -150 0
1 -149 142 0
1 -150 142 0
1 150 68 0
1 -150 136 0
1 150 -147 0
1 -150 146 0
1 -150 -140 0
1 150 -73 0
1 -150 135 0
1 150 188 0
1 150 90 0
1 150 -145 0
1 158 -148 0
1 158 -68 0
1 158 -136 0
1 158 -147 0
1 158 -102 0
1 158 -193 0
1 158 151 0
1 -158 73 0
1 -158 188 0
1 158 -135 0
1 158 159 0
1 -158 145 0
1 -158 194 0
1 159 148 0
1 159 68 0
1 -159 136 0
1 159 -158 0
1 159 -146 0
1 -159 193 0
1 -159 151 0
1 159 -73 0
1 159 135 0
1 159 104 0
1 -159 -188 0
1 159 145 0
1 159 -194 0
1 -145 165 0
1 -145 156 0
1 145 -158 0
1 145 146 0
1 145 149 0
1 -145 -152 0
1 145 195 0
1 -145 -166 0
1 145 155 0
1 -145 -159 0
1 -145 -134 0
1 -145 150 0
1 -145 -196 0
1 -145 153 0
1 -146 197 0
1 146 -165 0
1 -146 -156 0
1 -146 -132 0
1 146 198 0
1 -146 149 0
1 -146 -152 0
1 -146 -195 0
1 146 -166 0
1 146 155 0
1 -146 -159 0
1 146 -145 0
1 146 -150 0
1 -146 -153 0
1 -188 197 0
1 188 -147 0
1 -188 158 0
1 188 149 0
1 -188 -133 0
1 -188 -152 0
1 188 195 0
1 188 159 0
1 188 -199 0
1 -188 150 0
1 -188 -153 0
1 -147 197 0
1 147 131 0
1 -147 -158 0
1 -147 200 0
1 -147 -149 0
1 -147 152 0
1 -147 -188 0
1 147 195 0
1 147 159 0
1 147 150 0
1 -147 -153 0
1 -156 68 0
1 156 -65 0
1 -156 83 0
1 -156 -96 0
1 -156 146 0
1 156 -193 0
1 156 151 0
1 -156 73 0
1 156 67 0
1 156 -85 0
1 156 -155 0
1 -156 -145 0
1 156 -194 0
1 155 -148 0
1 155 65 0
1 155 83 0
1 -155 -156 0
1 -155 -146 0
1 155 193 0
1 155 -151 0
1 -155 -73 0
1 155 67 0
1 155 101 0
1 155 145 0
1 -165 148 0
1 -165 201 0
1 165 154 0
1 -165 83 0
1 165 117 0
1 -165 -146 0
1 165 -193 0
1 -165 151 0
1 165 160 0
1 165 157 0
1 -165 -85 0
1 165 166 0
1 165 194 0
1 -166 -148 0
1 166 -201 0
1 166 -154 0
1 166 -83 0
1 -166 165 0
1 166 146 0
1 -166 -193 0
1 -166 -151 0
1 -166 160 0
1 166 -157 0
1 166 -85 0
1 166 115 0
1 -166 -145 0
1 -166 194 0
1 -148 -139 0
1 -148 202 0
1 148 -172 0
1 148 -203 0
1 148 -161 0
1 148 165 0
1 -148 -156 0
1 -148 -151 0
1 148 204 0
1 148 -163 0
1 -148 -166 0
1 -148 155 0
1 -148 -159 0
1 -151 148 0
1 151 -202 0
1 -151 -172 0
1 151 161 0
1 151 -165 0
1 151 -156 0
1 151 158 0
1 -151 -141 0
1 151 -204 0
1 151 174 0
1 -151 205 0
1 -151 163 0
1 -151 -166 0
1 -151 -155 0
1 -151 -159 0
1 194 -206 0
1 194 -202 0
1 -194 -207 0
1 194 197 0
1 -194 165 0
1 194 156 0
1 194 -158 0
1 -194 193 0
1 -194 -204 0
1 194 208 0
1 194 166 0
1 -194 -155 0
1 -194 159 0
1 -194 -142 0
1 193 -202 0
1 193 -207 0
1 -193 -197 0
1 193 165 0
1 -193 156 0
1 193 -158 0
1 193 140 0
1 193 204 0
1 193 -208 0
1 -193 -195 0
1 -193 -166 0
1 -193 155 0
1 -193 -159 0
1 161 148 0
1 -161 111 0
1 -161 -201 0
1 161 -197 0
1 161 -83 0
1 -161 154 0
1 161 92 0
1 -161 151 0
1 161 160 0
1 -161 163 0
1 -161 157 0
1 -161 85 0
1 161 -81 0
1 161 95 0
1 163 -148 0
1 163 -201 0
1 -163 161 0
1 163 154 0
1 163 83 0
1 163 79 0
1 -163 -92 0
1 163 108 0
1 -163 -160 0
1 163 195 0
1 163 85 0
1 163 157 0
1 -163 81 0
1 172 -148 0
1 172 -207 0
1 172 201 0
1 172 -154 0
1 -172 -209 0
1 172 -162 0
1 172 92 0
1 172 151 0
1 172 174 0
1 -172 160 0
1 -172 157 0
1 172 -164 0
1 172 95 0
1 174 -148 0
1 -174 -172 0
1 174 201 0
1 174 154 0
1 -174 209 0
1 174 -162 0
1 174 92 0
1 -174 151 0
1 174 208 0
1 -174 -160 0
1 174 157 0
1 -174 164 0
1 -174 95 0
1 154 -168 0
1 -154 161 0
1 154 -65 0
1 154 165 0
1 -154 210 0
1 154 180 0
1 -154 170 0
1 154 -174 0
1 -154 -163 0
1 154 -157 0
1 -154 166 0
1 -154 -181 0
1 -157 168 0
1 157 172 0
1 157 161 0
1 157 -154 0
1 157 165 0
1 157 210 0
1 157 180 0
1 -157 170 0
1 157 -174 0
1 -157 67 0
1 -157 166 0
1 -157 181 0
1 -201 211 0
1 201 -202 0
1 -201 -172 0
1 201 -68 0
1 201 -161 0
1 201 -165 0
1 -201 -210 0
1 201 -204 0
1 201 174 0
1 201 160 0
1 -201 -163 0
1 -201 -166 0
1 -160 211 0
1 160 202 0
1 -160 -172 0
1 -160 201 0
1 160 -161 0
1 160 -165 0
1 160 -210 0
1 160 -212 0
1 -160 204 0
1 160 -174 0
1 -160 73 0
1 160 -163 0
1 -160 -166 0
1 -168 202 0
1 -168 -154 0
1 -168 -209 0
1 -168 -162 0
1 -168 92 0
1 -168 -89 0
1 168 170 0
1 -168 103 0
1 -168 -157 0
1 168 167 0
1 168 -164 0
1 168 95 0
1 168 -91 0
1 -168 -105 0
1 -170 -168 0
1 -170 154 0
1 -170 209 0
1 -170 162 0
1 170 -92 0
1 170 119 0
1 -170 103 0
1 170 204 0
1 170 157 0
1 -170 167 0
1 170 95 0
1 170 -105 0
1 181 211 0
1 -181 154 0
1 -181 -209 0
1 181 -162 0
1 181 -173 0
1 -181 180 0
1 -181 -169 0
1 181 -103 0
1 181 157 0
1 181 167 0
1 -181 -164 0
1 -181 175 0
1 -181 171 0
1 -181 179 0
1 -181 105 0
1 180 -154 0
1 180 -209 0
1 180 -162 0
1 -180 181 0
1 180 177 0
1 180 -169 0
1 -180 -212 0
1 180 103 0
1 180 -157 0
1 -180 167 0
1 -180 164 0
1 180 175 0
1 180 -171 0
1 -180 -105 0
1 -162 168 0
1 -162 -172 0
1 162 -164 0
1 -162 -79 0
1 -162 -186 0
1 162 -176 0
1 -162 180 0
1 162 170 0
1 162 -174 0
1 -162 -187 0
1 -162 178 0
1 -164 168 0
1 -164 172 0
1 -164 162 0
1 164 176 0
1 164 180 0
1 -164 -170 0
1 -164 174 0
1 164 81 0
1 -164 187 0
1 164 178 0
1 -209 -172 0
1 -209 -83 0
1 209 213 0
1 -209 -180 0
1 209 -174 0
1 209 -167 0
1 -209 214 0
1 209 -181 0
1 167 -168 0
1 -167 209 0
1 -167 -213 0
1 -167 -210 0
1 -167 180 0
1 -167 -170 0
1 167 174 0
1 -167 -85 0
1 167 181 0
1 178 100 0
1 178 116 0
1 -178 162 0
1 -178 -176 0
1 178 173 0
1 178 -169 0
1 -178 103 0
1 178 -98 0
1 -178 -114 0
1 178 -164 0
1 -178 175 0
1 -178 185 0
1 -178 -171 0
1 -178 105 0
1 -176 -100 0
1 -176 -116 0
1 176 162 0
1 176 183 0
1 -176 173 0
1 176 210 0
1 -176 -169 0
1 176 103 0
1 176 98 0
1 -176 114 0
1 176 -171 0
1 176 -164 0
1 176 178 0
1 176 -105 0
1 -187 -116 0
1 -187 -186 0
1 187 162 0
1 187 173 0
1 -187 -169 0
1 187 -114 0
1 187 -164 0
1 -187 184 0
1 187 175 0
1 187 214 0
1 -187 171 0
1 186 116 0
1 -186 182 0
1 -186 -162 0
1 -186 213 0
1 -186 173 0
1 186 -175 0
1 186 -169 0
1 -186 -114 0
1 186 -164 0
1 186 -187 0
1 186 171 0
1 -169 -186 0
1 169 176 0
1 -169 89 0
1 169 180 0
1 -169 171 0
1 -169 187 0
1 -169 -178 0
1 -169 -181 0
1 -171 176 0
1 -171 -180 0
1 -171 -169 0
1 171 187 0
1 171 91 0
1 171 -178 0
1 171 -181 0
1 -173 -186 0
1 -173 92 0
1 173 176 0
1 -173 180 0
1 -173 -175 0
1 -173 -187 0
1 173 178 0
1 -173 181 0
1 -175 -186 0
1 175 -176 0
1 -175 -173 0
1 175 -180 0
1 -175 95 0
1 175 -187 0
1 175 178 0
1 -175 181 0
1 197 161 0
1 -197 192 0
1 197 190 0
1 197 147 0
1 197 -146 0
1 197 193 0
1 197 195 0
1 -197 -191 0
1 -197 -189 0
1 197 -188 0
1 -197 -145 0
1 -197 -194 0
1 195 -197 0
1 195 -192 0
1 -195 147 0
1 195 146 0
1 195 193 0
1 -195 -163 0
1 -195 191 0
1 195 -189 0
1 -195 -188 0
1 195 145 0
1 195 -194 0
1 207 172 0
1 207 190 0
1 -207 -200 0
1 -207 198 0
1 -207 193 0
1 207 208 0
1 -207 191 0
1 -207 189 0
1 -207 -199 0
1 207 196 0
1 207 194 0
1 -208 -207 0
1 -208 -192 0
1 208 -190 0
1 208 -200 0
1 -208 198 0
1 -208 -193 0
1 -208 174 0
1 208 191 0
1 208 -189 0
1 -208 -199 0
1 208 196 0
1 -208 -194 0
1 -189 -202 0
1 -189 -207 0
1 189 -197 0
1 -189 190 0
1 -189 212 0
1 -189 -204 0
1 189 -208 0
1 189 -195 0
1 -189 135 0
1 190 211 0
1 -190 -202 0
1 -190 -197 0
1 -190 -136 0
1 -190 212 0
1 190 204 0
1 190 208 0
1 190 195 0
1 -190 -189 0
1 191 207 0
1 191 197 0
1 191 -192 0
1 -191 208 0
1 191 195 0
1 -191 -137 0
1 -192 -207 0
1 -192 -197 0
1 -192 -191 0
1 192 -138 0
1 -192 208 0
1 192 195 0
1 -202 168 0
1 202 148 0
1 202 200 0
1 202 193 0
1 -202 -151 0
1 -202 -204 0
1 202 -160 0
1 -202 189 0
1 202 199 0
1 -202 196 0
1 202 -194 0
1 -204 148 0
1 -204 201 0
1 -204 -190 0
1 -204 200 0
1 -204 198 0
1 204 193 0
1 204 189 0
1 204 199 0
1 204 196 0
1 204 -194 0
1 211 206 0
1 -211 -203 0
1 -211 -201 0
1 211 190 0
1 -211 200 0
1 211 -212 0
1 -211 215 0
1 211 205 0
1 211 -160 0
1 -211 189 0
1 211 199 0
1 -211 -196 0
1 -211 181 0
1 -212 211 0
1 -212 206 0
1 -212 -203 0
1 -212 201 0
1 212 190 0
1 212 -200 0
1 212 198 0
1 212 180 0
1 -212 -215 0
1 -212 -205 0
1 212 -160 0
1 -212 189 0
1 212 199 0
1 212 -196 0
1 -196 211 0
1 -196 -202 0
1 -196 -207 0
1 -196 -213 0
1 196 -210 0
1 196 -198 0
1 -196 212 0
1 196 204 0
1 196 208 0
1 196 214 0
1 196 -145 0
1 198 211 0
1 198 -202 0
1 -198 207 0
1 198 -213 0
1 198 -146 0
1 -198 210 0
1 198 212 0
1 198 -204 0
1 198 -214 0
1 -198 -196 0
1 -199 -211 0
1 199 -202 0
1 199 207 0
1 199 -200 0
1 199 -212 0
1 199 204 0
1 -199 208 0
1 -200 -211 0
1 -200 -202 0
1 -200 207 0
1 -200 147 0
1 200 204 0
1 200 208 0
1 200 -199 0
1 210 -203 0
1 -210 -201 0
1 210 209 0
1 -210 -176 0
1 -210 -198 0
1 -210 -215 0
1 -210 205 0
1 -210 160 0
1 210 -157 0
1 -210 -167 0
1 210 -196 0
1 214 206 0
1 214 203 0
1 -214 209 0
1 -214 213 0
1 -214 198 0
1 214 -215 0
1 -214 205 0
1 214 -167 0
1 -214 -187 0
1 -214 -196 0
1 213 -206 0
1 213 -203 0
1 -213 -186 0
1 213 198 0
1 -213 -215 0
1 -213 205 0
1 213 214 0
1 213 -196 0
1 203 211 0
1 203 148 0
1 203 213 0
1 203 -210 0
1 203 212 0
1 -203 205 0
1 -203 -214 0
1 205 203 0
1 205 213 0
1 205 -210 0
1 -205 212 0
1 205 -151 0
1 -205 -214 0
1 -206 211 0
1 206 -213 0
1 -206 -210 0
1 -206 212 0
1 206 214 0
1 -206 -194 0
1 215 211 0
1 -215 206 0
1 -215 -213 0
1 -215 -210 0
1 215 193 0
1 -215 -212 0
1 215 214 0
